4 10 6 15 18 14 7 8 5 9 11 19 3 17 13 16 12 0 2 1  
4 10 18 15 6 14 7 8 11 17 12 5 9 19 1 0 2 13 16 3  
4 10 18 14 15 6 7 11 8 5 9 19 13 12 17 1 0 2 16 3  
4 10 6 15 18 14 11 7 8 5 9 19 13 12 17 1 0 2 16 3  
4 10 6 15 18 14 0 8 11 5 9 19 13 12 17 16 1 7 2 3  
4 10 18 14 15 6 7 8 11 5 9 13 19 12 17 1 0 2 16 3  
4 10 6 18 15 14 0 8 11 5 9 19 12 17 13 16 2 1 7 3  
4 10 6 15 18 14 0 8 11 5 9 19 17 12 16 2 13 7 3 1  
4 10 6 15 18 14 0 8 11 16 5 9 19 13 12 17 1 2 7 3  
4 10 18 14 15 6 7 8 11 5 9 19 13 12 0 16 17 1 2 3  
4 10 6 18 15 14 0 8 11 5 9 19 12 17 2 16 13 1 7 3  
4 10 6 18 15 14 0 8 11 5 9 19 16 13 12 17 3 1 7 2  
4 10 6 18 15 14 7 8 11 5 9 19 2 12 17 1 0 13 16 3  
4 10 6 18 15 14 0 8 11 5 9 19 16 13 12 17 7 3 1 2  
4 10 18 15 6 14 0 8 11 16 5 9 19 13 12 17 1 2 7 3  
10 6 4 15 18 14 7 8 11 5 9 19 13 12 0 2 17 1 16 3  
4 10 6 18 15 14 0 8 11 5 9 19 16 13 12 17 2 3 1 7  
4 10 18 14 15 6 7 8 11 5 9 19 13 16 0 12 17 1 2 3  
4 10 18 15 6 14 7 8 11 17 12 5 9 19 0 1 2 13 16 3  
4 10 18 14 15 6 0 8 11 19 16 5 9 13 12 17 2 1 7 3  
4 10 6 15 18 14 0 8 11 16 5 9 19 13 12 17 2 1 7 3  
4 10 6 15 18 14 7 8 5 9 11 19 3 17 13 16 12 0 2 1  
4 10 6 18 15 14 0 8 11 5 9 19 12 17 2 16 13 7 3 1  
4 10 6 15 18 14 7 8 11 5 9 19 2 16 0 13 12 17 1 3  
4 10 6 18 15 14 0 8 11 5 9 19 13 12 7 2 17 1 16 3  
4 10 6 18 15 14 0 8 11 19 12 5 9 13 2 16 17 3 1 7  
4 15 18 10 14 6 17 8 11 12 0 2 9 19 16 5 3 13 1 7  
4 10 18 14 15 6 8 0 11 19 12 5 9 13 2 16 17 1 7 3  
4 10 18 14 15 6 0 8 11 19 12 5 9 13 16 3 17 1 7 2  
4 10 6 15 18 14 0 8 16 11 5 9 19 13 12 17 1 2 7 3  
4 10 6 18 15 14 7 8 11 5 9 19 13 12 17 16 0 2 3 1  
4 10 6 18 15 14 0 8 11 5 9 19 16 2 12 17 13 7 1 3  
4 10 18 14 15 6 8 0 11 19 16 5 9 13 12 17 2 7 3 1  
4 10 18 15 6 14 7 8 11 17 12 5 9 19 1 0 2 13 16 3  
4 10 6 18 15 14 7 8 11 5 9 19 2 17 12 0 1 13 16 3  
4 10 6 15 18 14 0 8 11 5 9 19 3 13 12 17 2 1 7 16  
4 10 6 18 15 14 0 8 11 5 9 19 16 17 12 7 3 13 1 2  
4 10 6 15 18 14 7 11 8 5 9 19 13 12 17 1 0 2 16 3  
4 10 6 15 18 14 0 8 11 5 9 19 16 13 12 17 2 1 7 3  
4 10 6 18 15 14 0 8 11 5 9 19 16 13 12 17 1 3 7 2  
4 10 6 18 15 14 0 8 11 5 9 19 16 13 12 7 2 3 1 17  
4 10 6 18 15 14 0 8 11 5 9 19 16 13 12 17 2 3 1 7  
4 10 18 14 15 6 7 8 11 5 9 13 19 12 17 1 0 2 16 3  
4 10 6 18 15 14 0 8 11 5 9 19 13 12 17 16 3 2 1 7  
10 6 4 15 18 14 11 7 8 5 9 19 13 12 17 16 0 1 2 3  
4 10 6 18 15 14 0 8 11 5 9 19 13 12 7 16 2 17 1 3  
4 10 18 15 6 14 0 8 11 16 5 9 19 13 12 17 3 1 7 2  
